# Generated by ConicBenchmarkUtilities.jl
VER
2

OBJSENSE
MIN

VAR
411 1
F 411

INT
80
28
29
30
31
32
33
34
35
36
37
38
39
40
41
42
43
44
45
46
47
48
49
50
51
52
53
54
55
56
57
58
59
60
61
62
63
64
65
66
67
126
130
138
142
157
158
160
164
185
186
188
192
202
206
216
220
235
236
245
246
248
252
271
272
274
278
286
290
298
302
323
324
333
334
336
340
348
352
360
364

CON
1149 1093
L= 1
L= 1
L= 1
L= 1
L= 1
L= 1
L= 1
L= 1
L= 1
L= 1
L= 1
L= 1
L= 1
L= 1
L= 1
L= 1
L= 1
L= 1
L= 1
L= 1
L= 1
EXP 3
L+ 1
L+ 1
EXP 3
L+ 1
L+ 1
L= 1
L= 1
L= 1
L= 1
L= 1
L= 1
L= 1
L= 1
L+ 1
L+ 1
L+ 1
L+ 1
L+ 1
L+ 1
L+ 1
L+ 1
EXP 3
L+ 1
L+ 1
EXP 3
L+ 1
L+ 1
L= 1
L= 1
L= 1
L= 1
L= 1
L= 1
L= 1
L= 1
L+ 1
L+ 1
L+ 1
L+ 1
L+ 1
L+ 1
L+ 1
L+ 1
L= 1
L= 1
L= 1
L= 1
L= 1
L= 1
L= 1
L= 1
L= 1
L= 1
L+ 1
L+ 1
L+ 1
L+ 1
L+ 1
L+ 1
L+ 1
L+ 1
EXP 3
L+ 1
L+ 1
EXP 3
L+ 1
L+ 1
L= 1
L= 1
L= 1
L= 1
L= 1
L= 1
L= 1
L= 1
L+ 1
L+ 1
L+ 1
L+ 1
L+ 1
L+ 1
L+ 1
L+ 1
L= 1
L= 1
L= 1
L= 1
L= 1
L= 1
L= 1
L= 1
L= 1
L= 1
L= 1
L= 1
L= 1
L= 1
L= 1
L= 1
L+ 1
L+ 1
L+ 1
L+ 1
L+ 1
L+ 1
L+ 1
L+ 1
L+ 1
L+ 1
L+ 1
L+ 1
EXP 3
L+ 1
L+ 1
EXP 3
L+ 1
L+ 1
L= 1
L= 1
L= 1
L= 1
L= 1
L= 1
L= 1
L= 1
L+ 1
L+ 1
L+ 1
L+ 1
L+ 1
L+ 1
L+ 1
L+ 1
EXP 3
L+ 1
L+ 1
EXP 3
L+ 1
L+ 1
L= 1
L= 1
L= 1
L= 1
L= 1
L= 1
L= 1
L= 1
L+ 1
L+ 1
L+ 1
L+ 1
L+ 1
L+ 1
L+ 1
L+ 1
EXP 3
L+ 1
L+ 1
EXP 3
L+ 1
L+ 1
L= 1
L= 1
L= 1
L= 1
L= 1
L= 1
L= 1
L= 1
L+ 1
L+ 1
L+ 1
L+ 1
L+ 1
L+ 1
L+ 1
L+ 1
L= 1
L= 1
L= 1
L= 1
L= 1
L= 1
L= 1
L= 1
L= 1
L= 1
L+ 1
L+ 1
L+ 1
L+ 1
L+ 1
L+ 1
L+ 1
L+ 1
L= 1
L= 1
L= 1
L= 1
L= 1
L= 1
L= 1
L= 1
L= 1
L= 1
L+ 1
L+ 1
L+ 1
L+ 1
L+ 1
L+ 1
L+ 1
L+ 1
EXP 3
L+ 1
L+ 1
EXP 3
L+ 1
L+ 1
L= 1
L= 1
L= 1
L= 1
L= 1
L= 1
L= 1
L= 1
L+ 1
L+ 1
L+ 1
L+ 1
L+ 1
L+ 1
L+ 1
L+ 1
L= 1
L= 1
L= 1
L= 1
L= 1
L= 1
L= 1
L= 1
L= 1
L= 1
L= 1
L= 1
L= 1
L= 1
L= 1
L= 1
L+ 1
L+ 1
L+ 1
L+ 1
L+ 1
L+ 1
L+ 1
L+ 1
L+ 1
L+ 1
L+ 1
L+ 1
EXP 3
L+ 1
L+ 1
EXP 3
L+ 1
L+ 1
L= 1
L= 1
L= 1
L= 1
L= 1
L= 1
L= 1
L= 1
L+ 1
L+ 1
L+ 1
L+ 1
L+ 1
L+ 1
L+ 1
L+ 1
EXP 3
L+ 1
L+ 1
EXP 3
L+ 1
L+ 1
L= 1
L= 1
L= 1
L= 1
L= 1
L= 1
L= 1
L= 1
L+ 1
L+ 1
L+ 1
L+ 1
L+ 1
L+ 1
L+ 1
L+ 1
EXP 3
L+ 1
L+ 1
EXP 3
L+ 1
L+ 1
EXP 3
L+ 1
L+ 1
EXP 3
L+ 1
L+ 1
L= 1
L= 1
L= 1
L= 1
L= 1
L= 1
L= 1
L= 1
L= 1
L= 1
L= 1
L= 1
L+ 1
L+ 1
L+ 1
L+ 1
L+ 1
L+ 1
L+ 1
L+ 1
L+ 1
L+ 1
L+ 1
L+ 1
L= 1
L= 1
L= 1
L= 1
L= 1
L= 1
L= 1
L= 1
L= 1
L= 1
L+ 1
L+ 1
L+ 1
L+ 1
L+ 1
L+ 1
L+ 1
L+ 1
L= 1
L= 1
L= 1
L= 1
L= 1
L= 1
L= 1
L= 1
L= 1
L= 1
L+ 1
L+ 1
L+ 1
L+ 1
L+ 1
L+ 1
L+ 1
L+ 1
EXP 3
L+ 1
L+ 1
EXP 3
L+ 1
L+ 1
L= 1
L= 1
L= 1
L= 1
L= 1
L= 1
L= 1
L= 1
L+ 1
L+ 1
L+ 1
L+ 1
L+ 1
L+ 1
L+ 1
L+ 1
EXP 3
L+ 1
L+ 1
EXP 3
L+ 1
L+ 1
L= 1
L= 1
L= 1
L= 1
L= 1
L= 1
L= 1
L= 1
L+ 1
L+ 1
L+ 1
L+ 1
L+ 1
L+ 1
L+ 1
L+ 1
EXP 3
L+ 1
L+ 1
EXP 3
L+ 1
L+ 1
L= 1
L= 1
L= 1
L= 1
L= 1
L= 1
L= 1
L= 1
L+ 1
L+ 1
L+ 1
L+ 1
L+ 1
L+ 1
L+ 1
L+ 1
L= 1
L= 1
L= 1
L= 1
L= 1
L= 1
L= 1
L= 1
L= 1
L= 1
L= 1
L= 1
L= 1
L= 1
L= 1
L= 1
L= 1
L= 1
L= 1
L= 1
L= 1
L= 1
L= 1
L= 1
L= 1
L= 1
L= 1
L= 1
L= 1
L= 1
L= 1
L= 1
L= 1
L= 1
L= 1
L= 1
L= 1
L= 1
L= 1
L= 1
L+ 1
L+ 1
L+ 1
L+ 1
L+ 1
L+ 1
L+ 1
L+ 1
L+ 1
L+ 1
L+ 1
L+ 1
L+ 1
L+ 1
L+ 1
L+ 1
L+ 1
L+ 1
L+ 1
L+ 1
L+ 1
L+ 1
L+ 1
L+ 1
L+ 1
L+ 1
L+ 1
L+ 1
L+ 1
L+ 1
L+ 1
L+ 1
L+ 1
L+ 1
L+ 1
L+ 1
L+ 1
L+ 1
L+ 1
L+ 1
L+ 1
L+ 1
L+ 1
L+ 1
L+ 1
L+ 1
L+ 1
L+ 1
L+ 1
L+ 1
L+ 1
L+ 1
L+ 1
L+ 1
L+ 1
L+ 1
L+ 1
L+ 1
L+ 1
L+ 1
L+ 1
L+ 1
L+ 1
L+ 1
L+ 1
L+ 1
L+ 1
L+ 1
L+ 1
L+ 1
L+ 1
L+ 1
L+ 1
L+ 1
L+ 1
L+ 1
L+ 1
L+ 1
L+ 1
L+ 1
L+ 1
L+ 1
L+ 1
L+ 1
L+ 1
L+ 1
L+ 1
L+ 1
L+ 1
L+ 1
L+ 1
L+ 1
L+ 1
L+ 1
L+ 1
L+ 1
L+ 1
L+ 1
L+ 1
L+ 1
L= 1
L= 1
L+ 1
L+ 1
L+ 1
L+ 1
L+ 1
L+ 1
L+ 1
L+ 1
L+ 1
L+ 1
L+ 1
L+ 1
L+ 1
L+ 1
L+ 1
L+ 1
L+ 1
L+ 1
L+ 1
L+ 1
L+ 1
L+ 1
L+ 1
L+ 1
L+ 1
L+ 1
L+ 1
L+ 1
L+ 1
L+ 1
L+ 1
L+ 1
L+ 1
L+ 1
L+ 1
L+ 1
L+ 1
L+ 1
L+ 1
L+ 1
L+ 1
L+ 1
L+ 1
L+ 1
L+ 1
L+ 1
L+ 1
L+ 1
L+ 1
L+ 1
L+ 1
L+ 1
L+ 1
L+ 1
L+ 1
L+ 1
L+ 1
L+ 1
L+ 1
L+ 1
L+ 1
L+ 1
L+ 1
L+ 1
L+ 1
L+ 1
L+ 1
L+ 1
L+ 1
L+ 1
L+ 1
L+ 1
L+ 1
L+ 1
L+ 1
L+ 1
L+ 1
L+ 1
L+ 1
L+ 1
L+ 1
L+ 1
L+ 1
L+ 1
L+ 1
L+ 1
L+ 1
L+ 1
L+ 1
L+ 1
L+ 1
L+ 1
L+ 1
L+ 1
L+ 1
L+ 1
L+ 1
L+ 1
L+ 1
L+ 1
L+ 1
L+ 1
L+ 1
L+ 1
L+ 1
L+ 1
L+ 1
L+ 1
L+ 1
L+ 1
L+ 1
L+ 1
L+ 1
L+ 1
L+ 1
L+ 1
L+ 1
L+ 1
L+ 1
L+ 1
L+ 1
L+ 1
L+ 1
L+ 1
L+ 1
L+ 1
L+ 1
L+ 1
L+ 1
L+ 1
L+ 1
L+ 1
L+ 1
L+ 1
L+ 1
L+ 1
L+ 1
L+ 1
L+ 1
L+ 1
L+ 1
L+ 1
L+ 1
L+ 1
L+ 1
L+ 1
L+ 1
L+ 1
L+ 1
L+ 1
L+ 1
L+ 1
L+ 1
L+ 1
L+ 1
L+ 1
L+ 1
L+ 1
L+ 1
L+ 1
L+ 1
L+ 1
L+ 1
L+ 1
L+ 1
L+ 1
L+ 1
L+ 1
L+ 1
L+ 1
L+ 1
L+ 1
L+ 1
L+ 1
L+ 1
L+ 1
L+ 1
L+ 1
L+ 1
L+ 1
L+ 1
L+ 1
L+ 1
L+ 1
L+ 1
L+ 1
L+ 1
L+ 1
L+ 1
L+ 1
L+ 1
L+ 1
L+ 1
L+ 1
L+ 1
L+ 1
L+ 1
L+ 1
L+ 1
L+ 1
L+ 1
L+ 1
L+ 1
L+ 1
L+ 1
L+ 1
L+ 1
L+ 1
L+ 1
L+ 1
L+ 1
L+ 1
L+ 1
L+ 1
L+ 1
L+ 1
L+ 1
L+ 1
L+ 1
L+ 1
L+ 1
L+ 1
L+ 1
L+ 1
L+ 1
L+ 1
L+ 1
L+ 1
L+ 1
L+ 1
L+ 1
L+ 1
L+ 1
L+ 1
L+ 1
L+ 1
L+ 1
L+ 1
L+ 1
L+ 1
L+ 1
L+ 1
L+ 1
L+ 1
L+ 1
L+ 1
L+ 1
L+ 1
L+ 1
L+ 1
L+ 1
L+ 1
L+ 1
L+ 1
L+ 1
L+ 1
L+ 1
L+ 1
L+ 1
L+ 1
L+ 1
L+ 1
L+ 1
L+ 1
L+ 1
L+ 1
L+ 1
L+ 1
L+ 1
L+ 1
L+ 1
L+ 1
L+ 1
L+ 1
L+ 1
L+ 1
L+ 1
L+ 1
L+ 1
L+ 1
L+ 1
L+ 1
L+ 1
L+ 1
L+ 1
L+ 1
L+ 1
L+ 1
L+ 1
L+ 1
L+ 1
L+ 1
L+ 1
L+ 1
L+ 1
L+ 1
L+ 1
L+ 1
L+ 1
L+ 1
L+ 1
L+ 1
L+ 1
L+ 1
L+ 1
L+ 1
L+ 1
L+ 1
L+ 1
L+ 1
L+ 1
L+ 1
L+ 1
L+ 1
L+ 1
L+ 1
L+ 1
L+ 1
L+ 1
L+ 1
L+ 1
L+ 1
L+ 1
L+ 1
L+ 1
L+ 1
L+ 1
L+ 1
L+ 1
L+ 1
L+ 1
L+ 1
L+ 1
L+ 1
L+ 1
L+ 1
L+ 1
L+ 1
L+ 1
L+ 1
L+ 1
L+ 1
L+ 1
L+ 1
L+ 1
L+ 1
L+ 1
L+ 1
L+ 1
L+ 1
L+ 1
L+ 1
L+ 1
L+ 1
L+ 1
L+ 1
L+ 1
L+ 1
L+ 1
L+ 1
L+ 1
L+ 1
L+ 1
L+ 1
L+ 1
L+ 1
L+ 1
L+ 1
L+ 1
L+ 1
L+ 1
L+ 1
L+ 1
L+ 1
L+ 1
L+ 1
L+ 1
L+ 1
L+ 1
L+ 1
L+ 1
L+ 1
L+ 1
L+ 1
L+ 1
L+ 1
L+ 1
L+ 1
L+ 1
L+ 1
L+ 1
L+ 1
L+ 1
L+ 1
L+ 1
L+ 1
L+ 1
L+ 1
L+ 1
L+ 1
L+ 1
L+ 1
L+ 1
L+ 1
L+ 1
L+ 1
L+ 1
L+ 1
L+ 1
L+ 1
L+ 1
L+ 1
L+ 1
L+ 1
L+ 1
L+ 1
L+ 1
L+ 1
L+ 1
L+ 1
L+ 1
L+ 1
L+ 1
L+ 1
L+ 1
L+ 1
L+ 1
L+ 1
L+ 1
L+ 1
L+ 1
L+ 1
L+ 1
L+ 1
L+ 1
L+ 1
L+ 1
L+ 1
L+ 1
L+ 1
L+ 1
L+ 1
L+ 1
L+ 1
L+ 1
L+ 1
L+ 1
L+ 1
L+ 1
L+ 1
L+ 1
L+ 1
L+ 1
L+ 1
L+ 1
L+ 1
L+ 1
L+ 1
L+ 1
L+ 1
L+ 1
L+ 1
L+ 1
L+ 1
L+ 1
L+ 1
L+ 1
L+ 1
L+ 1
L+ 1
L+ 1
L+ 1
L+ 1
L+ 1
L+ 1
L+ 1
L+ 1
L+ 1
L+ 1
L+ 1
L+ 1
L+ 1
L+ 1
L+ 1

OBJACOORD
1
68 -1.0

ACOORD
1945
0 0 -1.0
1 0 1.0
719 0 1.0
720 0 -1.0
0 1 -1.0
2 1 1.0
721 1 1.0
722 1 -1.0
0 2 5.0
5 2 -1.0
733 2 1.0
0 3 10.0
6 3 -1.0
734 3 1.0
0 4 -2.0
129 4 1.0
743 4 1.0
744 4 -1.0
0 5 -1.0
130 5 1.0
745 5 1.0
746 5 -1.0
0 6 -10.0
297 6 1.0
779 6 1.0
780 6 -1.0
0 7 -5.0
298 7 1.0
781 7 1.0
782 7 -1.0
0 8 -5.0
15 8 -1.0
783 8 1.0
784 8 -1.0
0 9 -5.0
16 9 -1.0
785 9 1.0
786 9 -1.0
0 10 80.0
299 10 1.0
799 10 1.0
0 11 130.0
300 11 1.0
800 11 1.0
0 12 110.0
329 12 1.0
801 12 1.0
0 13 120.0
330 13 1.0
802 13 1.0
0 14 110.0
355 14 1.0
803 14 1.0
0 15 130.0
356 15 1.0
804 15 1.0
0 16 80.0
395 16 1.0
805 16 1.0
0 17 90.0
396 17 1.0
806 17 1.0
0 18 285.0
417 18 1.0
807 18 1.0
0 19 390.0
418 19 1.0
808 19 1.0
0 20 290.0
435 20 1.0
809 20 1.0
0 21 405.0
436 21 1.0
810 21 1.0
0 22 280.0
461 22 1.0
811 22 1.0
0 23 400.0
462 23 1.0
812 23 1.0
0 24 290.0
487 24 1.0
813 24 1.0
0 25 300.0
488 25 1.0
814 25 1.0
0 26 350.0
513 26 1.0
815 26 1.0
0 27 250.0
514 27 1.0
816 27 1.0
0 28 -5.0
523 28 5.0
583 28 -1.0
584 28 -1.0
623 28 1.0
1069 28 1.0
1070 28 -1.0
0 29 -4.0
524 29 4.0
583 29 -1.0
584 29 -1.0
624 29 1.0
1071 29 1.0
1072 29 -1.0
0 30 -8.0
525 30 8.0
585 30 -1.0
586 30 -1.0
625 30 1.0
1073 30 1.0
1074 30 -1.0
0 31 -7.0
526 31 7.0
585 31 -1.0
586 31 -1.0
626 31 1.0
1075 31 1.0
1076 31 -1.0
0 32 -6.0
527 32 6.0
587 32 -1.0
588 32 -1.0
627 32 1.0
1077 32 1.0
1078 32 -1.0
0 33 -9.0
528 33 9.0
587 33 -1.0
588 33 -1.0
628 33 1.0
1079 33 1.0
1080 33 -1.0
0 34 -10.0
529 34 10.0
589 34 -1.0
590 34 -1.0
629 34 1.0
1081 34 1.0
1082 34 -1.0
0 35 -9.0
530 35 9.0
589 35 -1.0
590 35 -1.0
630 35 1.0
1083 35 1.0
1084 35 -1.0
0 36 -6.0
531 36 6.0
591 36 -1.0
592 36 -1.0
631 36 1.0
1085 36 1.0
1086 36 -1.0
0 37 -10.0
532 37 10.0
591 37 -1.0
592 37 -1.0
632 37 1.0
1087 37 1.0
1088 37 -1.0
0 38 -7.0
533 38 7.0
593 38 -1.0
594 38 -1.0
633 38 1.0
1089 38 1.0
1090 38 -1.0
0 39 -7.0
534 39 7.0
593 39 -1.0
594 39 -1.0
634 39 1.0
1091 39 1.0
1092 39 -1.0
0 40 -4.0
535 40 4.0
595 40 -1.0
596 40 -1.0
635 40 1.0
1093 40 1.0
1094 40 -1.0
0 41 -3.0
536 41 3.0
595 41 -1.0
596 41 -1.0
636 41 1.0
1095 41 1.0
1096 41 -1.0
0 42 -5.0
537 42 5.0
597 42 -1.0
598 42 -1.0
637 42 1.0
1097 42 1.0
1098 42 -1.0
0 43 -6.0
538 43 6.0
597 43 -1.0
598 43 -1.0
638 43 1.0
1099 43 1.0
1100 43 -1.0
0 44 -2.0
539 44 2.0
599 44 -1.0
600 44 -1.0
639 44 1.0
1101 44 1.0
1102 44 -1.0
0 45 -5.0
540 45 5.0
599 45 -1.0
600 45 -1.0
640 45 1.0
1103 45 1.0
1104 45 -1.0
0 46 -4.0
541 46 4.0
601 46 -1.0
602 46 -1.0
641 46 1.0
1105 46 1.0
1106 46 -1.0
0 47 -7.0
542 47 7.0
601 47 -1.0
602 47 -1.0
642 47 1.0
1107 47 1.0
1108 47 -1.0
0 48 -3.0
543 48 3.0
603 48 -1.0
604 48 -1.0
643 48 1.0
1109 48 1.0
1110 48 -1.0
0 49 -9.0
544 49 9.0
603 49 -1.0
604 49 -1.0
644 49 1.0
1111 49 1.0
1112 49 -1.0
0 50 -7.0
545 50 7.0
605 50 -1.0
606 50 -1.0
645 50 1.0
1113 50 1.0
1114 50 -1.0
0 51 -2.0
546 51 2.0
605 51 -1.0
606 51 -1.0
646 51 1.0
1115 51 1.0
1116 51 -1.0
0 52 -3.0
547 52 3.0
607 52 -1.0
608 52 -1.0
647 52 1.0
1117 52 1.0
1118 52 -1.0
0 53 -1.0
548 53 1.0
607 53 -1.0
608 53 -1.0
648 53 1.0
1119 53 1.0
1120 53 -1.0
0 54 -2.0
549 54 2.0
609 54 -1.0
610 54 -1.0
649 54 1.0
1121 54 1.0
1122 54 -1.0
0 55 -6.0
550 55 6.0
609 55 -1.0
610 55 -1.0
650 55 1.0
1123 55 1.0
1124 55 -1.0
0 56 -4.0
551 56 4.0
611 56 -1.0
612 56 -1.0
651 56 1.0
1125 56 1.0
1126 56 -1.0
0 57 -8.0
552 57 8.0
611 57 -1.0
612 57 -1.0
652 57 1.0
1127 57 1.0
1128 57 -1.0
0 58 -2.0
553 58 2.0
613 58 -1.0
614 58 -1.0
653 58 1.0
1129 58 1.0
1130 58 -1.0
0 59 -5.0
554 59 5.0
613 59 -1.0
614 59 -1.0
654 59 1.0
1131 59 1.0
1132 59 -1.0
0 60 -3.0
555 60 3.0
615 60 -1.0
616 60 -1.0
655 60 1.0
1133 60 1.0
1134 60 -1.0
0 61 -4.0
556 61 4.0
615 61 -1.0
616 61 -1.0
656 61 1.0
1135 61 1.0
1136 61 -1.0
0 62 -5.0
557 62 5.0
617 62 -1.0
618 62 -1.0
657 62 1.0
1137 62 1.0
1138 62 -1.0
0 63 -7.0
558 63 7.0
617 63 -1.0
618 63 -1.0
658 63 1.0
1139 63 1.0
1140 63 -1.0
0 64 -2.0
559 64 2.0
619 64 -1.0
620 64 -1.0
659 64 1.0
1141 64 1.0
1142 64 -1.0
0 65 -8.0
560 65 8.0
619 65 -1.0
620 65 -1.0
660 65 1.0
1143 65 1.0
1144 65 -1.0
0 66 -1.0
561 66 1.0
621 66 -1.0
622 66 -1.0
661 66 1.0
1145 66 1.0
1146 66 -1.0
0 67 -4.0
562 67 4.0
621 67 -1.0
622 67 -1.0
662 67 1.0
1147 67 1.0
1148 67 -1.0
0 68 -1.0
1 69 -1.0
35 69 1.0
723 69 1.0
1 70 -1.0
61 70 1.0
725 70 1.0
2 71 -1.0
36 71 1.0
724 71 1.0
2 72 -1.0
62 72 1.0
726 72 1.0
3 73 -1.0
37 73 1.0
727 73 1.0
3 74 -1.0
63 74 1.0
729 74 1.0
3 75 1.0
5 75 1.0
731 75 1.0
4 76 -1.0
38 76 1.0
728 76 1.0
4 77 -1.0
64 77 1.0
730 77 1.0
4 78 1.0
6 78 1.0
732 78 1.0
5 79 -1.0
7 79 1.0
735 79 1.0
6 80 -1.0
8 80 1.0
736 80 1.0
7 81 -1.0
79 81 1.0
737 81 1.0
7 82 -1.0
105 82 1.0
739 82 1.0
7 83 -1.0
127 83 1.0
741 83 1.0
8 84 -1.0
80 84 1.0
738 84 1.0
8 85 -1.0
106 85 1.0
740 85 1.0
8 86 -1.0
128 86 1.0
742 86 1.0
9 87 1.0
81 87 1.0
747 87 1.0
9 88 -1.0
159 88 1.0
753 88 1.0
9 89 -1.0
185 89 1.0
755 89 1.0
10 90 1.0
82 90 1.0
748 90 1.0
10 91 -1.0
160 91 1.0
754 91 1.0
10 92 -1.0
186 92 1.0
756 92 1.0
11 93 1.0
131 93 1.0
751 93 1.0
11 94 -1.0
229 94 1.0
757 94 1.0
11 95 -1.0
247 95 1.0
759 95 1.0
11 96 -1.0
273 96 1.0
761 96 1.0
12 97 1.0
132 97 1.0
752 97 1.0
12 98 -1.0
230 98 1.0
758 98 1.0
12 99 -1.0
248 99 1.0
760 99 1.0
12 100 -1.0
274 100 1.0
762 100 1.0
13 101 1.0
213 101 1.0
767 101 1.0
13 102 -1.0
353 102 1.0
775 102 1.0
13 103 -1.0
391 103 1.0
777 103 1.0
14 104 1.0
214 104 1.0
768 104 1.0
14 105 -1.0
354 105 1.0
776 105 1.0
14 106 -1.0
392 106 1.0
778 106 1.0
15 107 -1.0
231 107 1.0
769 107 1.0
15 108 1.0
393 108 1.0
787 108 1.0
16 109 -1.0
232 109 1.0
770 109 1.0
16 110 1.0
394 110 1.0
788 110 1.0
17 111 1.0
249 111 1.0
771 111 1.0
17 112 -1.0
415 112 1.0
789 112 1.0
17 113 -1.0
433 113 1.0
791 113 1.0
18 114 1.0
250 114 1.0
772 114 1.0
18 115 -1.0
416 115 1.0
790 115 1.0
18 116 -1.0
434 116 1.0
792 116 1.0
19 117 1.0
275 117 1.0
773 117 1.0
19 118 -1.0
459 118 1.0
793 118 1.0
19 119 -1.0
485 119 1.0
795 119 1.0
19 120 -1.0
511 120 1.0
797 120 1.0
20 121 1.0
276 121 1.0
774 121 1.0
20 122 -1.0
460 122 1.0
794 122 1.0
20 123 -1.0
486 123 1.0
796 123 1.0
20 124 -1.0
512 124 1.0
798 124 1.0
23 125 -1.0
25 125 -1.0
21 126 1.0
22 126 1.0
24 126 1.0
39 126 40.0
41 126 -40.0
43 126 3.71357206670431
45 126 -3.71357206670431
563 126 -1.0
623 126 -1.0
624 126 1.0
663 126 1.0
683 126 1.0
685 126 1.0
687 126 1.0
989 126 1.0
990 126 -1.0
21 127 1.0
24 127 1.0
35 127 -1.0
39 127 -1.0
817 127 1.0
25 128 -1.0
37 128 -1.0
43 128 -1.0
825 128 1.0
28 129 -1.0
30 129 -1.0
26 130 1.0
27 130 1.0
29 130 1.0
40 130 40.0
42 130 -40.0
44 130 3.71357206670431
46 130 -3.71357206670431
563 130 1.0
624 130 -1.0
664 130 1.0
684 130 1.0
686 130 1.0
688 130 1.0
991 130 1.0
992 130 -1.0
26 131 1.0
29 131 1.0
36 131 -1.0
40 131 -1.0
818 131 1.0
30 132 -1.0
38 132 -1.0
44 132 -1.0
826 132 1.0
31 133 1.0
35 133 -1.0
41 133 -1.0
819 133 1.0
32 134 1.0
36 134 -1.0
42 134 -1.0
820 134 1.0
33 135 1.0
37 135 -1.0
45 135 -1.0
827 135 1.0
34 136 1.0
38 136 -1.0
46 136 -1.0
828 136 1.0
49 137 -1.0
51 137 -1.2
47 138 1.0
48 138 1.0
50 138 1.0
65 138 40.0
67 138 -40.0
69 138 4.45628648004517
71 138 -4.45628648004517
564 138 -1.0
625 138 -1.0
626 138 1.0
663 138 1.0
683 138 1.0
685 138 1.0
687 138 1.0
993 138 1.0
994 138 -1.0
47 139 1.0
50 139 1.0
61 139 -1.0
65 139 -1.0
821 139 1.0
51 140 -1.0
63 140 -1.0
69 140 -1.0
829 140 1.0
54 141 -1.0
56 141 -1.2
52 142 1.0
53 142 1.0
55 142 1.0
66 142 40.0
68 142 -40.0
70 142 4.45628648004517
72 142 -4.45628648004517
564 142 1.0
626 142 -1.0
664 142 1.0
684 142 1.0
686 142 1.0
688 142 1.0
995 142 1.0
996 142 -1.0
52 143 1.0
55 143 1.0
62 143 -1.0
66 143 -1.0
822 143 1.0
56 144 -1.0
64 144 -1.0
70 144 -1.0
830 144 1.0
57 145 1.0
61 145 -1.0
67 145 -1.0
823 145 1.0
58 146 1.0
62 146 -1.0
68 146 -1.0
824 146 1.0
59 147 1.0
63 147 -1.0
71 147 -1.0
831 147 1.0
60 148 1.0
64 148 -1.0
72 148 -1.0
832 148 1.0
73 149 -0.75
79 149 -1.0
83 149 -1.0
833 149 1.0
73 150 1.0
81 150 -1.0
87 150 -1.0
849 150 1.0
74 151 -0.75
80 151 -1.0
84 151 -1.0
834 151 1.0
74 152 1.0
82 152 -1.0
88 152 -1.0
850 152 1.0
75 153 1.0
79 153 -1.0
85 153 -1.0
835 153 1.0
76 154 1.0
80 154 -1.0
86 154 -1.0
836 154 1.0
77 155 1.0
81 155 -1.0
89 155 -1.0
851 155 1.0
78 156 1.0
82 156 -1.0
90 156 -1.0
852 156 1.0
83 157 4.45628648004517
85 157 -4.45628648004517
87 157 3.34221486003388
89 157 -3.34221486003388
565 157 -1.0
627 157 -1.0
628 157 1.0
665 157 -1.0
683 157 -1.0
689 157 1.0
691 157 1.0
997 157 1.0
998 157 -1.0
84 158 4.45628648004517
86 158 -4.45628648004517
88 158 3.34221486003388
90 158 -3.34221486003388
565 158 1.0
628 158 -1.0
666 158 -1.0
684 158 -1.0
690 158 1.0
692 158 1.0
999 158 1.0
1000 158 -1.0
93 159 -1.0
95 159 -1.5
91 160 1.0
92 160 1.0
94 160 1.0
109 160 4.45628648004517
111 160 -4.45628648004517
113 160 2.54515263975353
115 160 -2.54515263975353
566 160 -1.0
629 160 -1.0
630 160 1.0
671 160 -1.0
685 160 -1.0
693 160 1.0
1001 160 1.0
1002 160 -1.0
91 161 1.0
94 161 1.0
105 161 -1.0
109 161 -1.0
837 161 1.0
95 162 -1.0
107 162 -1.0
113 162 -1.0
853 162 1.0
98 163 -1.0
100 163 -1.5
96 164 1.0
97 164 1.0
99 164 1.0
110 164 4.45628648004517
112 164 -4.45628648004517
114 164 2.54515263975353
116 164 -2.54515263975353
566 164 1.0
630 164 -1.0
672 164 -1.0
686 164 -1.0
694 164 1.0
1003 164 1.0
1004 164 -1.0
96 165 1.0
99 165 1.0
106 165 -1.0
110 165 -1.0
838 165 1.0
100 166 -1.0
108 166 -1.0
114 166 -1.0
854 166 1.0
101 167 1.0
105 167 -1.0
111 167 -1.0
839 167 1.0
102 168 1.0
106 168 -1.0
112 168 -1.0
840 168 1.0
103 169 1.0
107 169 -1.0
115 169 -1.0
857 169 1.0
104 170 1.0
108 170 -1.0
116 170 -1.0
858 170 1.0
107 171 1.0
211 171 1.0
749 171 1.0
108 172 1.0
212 172 1.0
750 172 1.0
117 173 -1.0
127 173 -1.0
133 173 -1.0
841 173 1.0
117 174 1.0
119 174 1.0
131 174 -1.0
141 174 -1.0
861 174 1.0
118 175 -1.0
128 175 -1.0
134 175 -1.0
842 175 1.0
118 176 1.0
120 176 1.0
132 176 -1.0
142 176 -1.0
862 176 1.0
119 177 -0.5
129 177 -1.0
137 177 -1.0
845 177 1.0
120 178 -0.5
130 178 -1.0
138 178 -1.0
846 178 1.0
121 179 1.0
127 179 -1.0
135 179 -1.0
843 179 1.0
122 180 1.0
128 180 -1.0
136 180 -1.0
844 180 1.0
123 181 1.0
129 181 -1.0
139 181 -1.0
847 181 1.0
124 182 1.0
130 182 -1.0
140 182 -1.0
848 182 1.0
125 183 1.0
131 183 -1.0
143 183 -1.0
863 183 1.0
126 184 1.0
132 184 -1.0
144 184 -1.0
864 184 1.0
133 185 4.45628648004517
135 185 -4.45628648004517
137 185 30.0
139 185 -30.0
141 185 15.0
143 185 -15.0
567 185 -1.0
631 185 -1.0
632 185 1.0
675 185 -1.0
687 185 -1.0
695 185 1.0
697 185 1.0
699 185 1.0
1005 185 1.0
1006 185 -1.0
134 186 4.45628648004517
136 186 -4.45628648004517
138 186 30.0
140 186 -30.0
142 186 15.0
144 186 -15.0
567 186 1.0
632 186 -1.0
676 186 -1.0
688 186 -1.0
696 186 1.0
698 186 1.0
700 186 1.0
1007 186 1.0
1008 186 -1.0
147 187 -1.0
149 187 -1.25
145 188 1.0
146 188 1.0
148 188 1.0
163 188 3.34221486003388
165 188 -3.34221486003388
167 188 1.83548069293539
169 188 -1.83548069293539
568 188 -1.0
633 188 -1.0
634 188 1.0
665 188 1.0
667 188 -1.0
689 188 -1.0
701 188 1.0
1009 188 1.0
1010 188 -1.0
145 189 1.0
148 189 1.0
159 189 -1.0
163 189 -1.0
865 189 1.0
149 190 -1.0
161 190 -1.0
167 190 -1.0
885 190 1.0
152 191 -1.0
154 191 -1.25
150 192 1.0
151 192 1.0
153 192 1.0
164 192 3.34221486003388
166 192 -3.34221486003388
168 192 1.83548069293539
170 192 -1.83548069293539
568 192 1.0
634 192 -1.0
666 192 1.0
668 192 -1.0
690 192 -1.0
702 192 1.0
1011 192 1.0
1012 192 -1.0
150 193 1.0
153 193 1.0
160 193 -1.0
164 193 -1.0
866 193 1.0
154 194 -1.0
162 194 -1.0
168 194 -1.0
886 194 1.0
155 195 1.0
159 195 -1.0
165 195 -1.0
867 195 1.0
156 196 1.0
160 196 -1.0
166 196 -1.0
868 196 1.0
157 197 1.0
161 197 -1.0
169 197 -1.0
889 197 1.0
158 198 1.0
162 198 -1.0
170 198 -1.0
890 198 1.0
161 199 1.0
295 199 1.0
763 199 1.0
162 200 1.0
296 200 1.0
764 200 1.0
173 201 -1.0
175 201 -0.9
171 202 1.0
172 202 1.0
174 202 1.0
189 202 3.34221486003388
191 202 -3.34221486003388
193 202 1.32154609891348
195 202 -1.32154609891348
569 202 -1.0
635 202 -1.0
636 202 1.0
665 202 1.0
669 202 -1.0
691 202 -1.0
703 202 1.0
1013 202 1.0
1014 202 -1.0
171 203 1.0
174 203 1.0
185 203 -1.0
189 203 -1.0
869 203 1.0
175 204 -1.0
187 204 -1.0
193 204 -1.0
893 204 1.0
178 205 -1.0
180 205 -0.9
176 206 1.0
177 206 1.0
179 206 1.0
190 206 3.34221486003388
192 206 -3.34221486003388
194 206 1.32154609891348
196 206 -1.32154609891348
569 206 1.0
636 206 -1.0
666 206 1.0
670 206 -1.0
692 206 -1.0
704 206 1.0
1015 206 1.0
1016 206 -1.0
176 207 1.0
179 207 1.0
186 207 -1.0
190 207 -1.0
870 207 1.0
180 208 -1.0
188 208 -1.0
194 208 -1.0
894 208 1.0
181 209 1.0
185 209 -1.0
191 209 -1.0
871 209 1.0
182 210 1.0
186 210 -1.0
192 210 -1.0
872 210 1.0
183 211 1.0
187 211 -1.0
195 211 -1.0
897 211 1.0
184 212 1.0
188 212 -1.0
196 212 -1.0
898 212 1.0
187 213 1.0
327 213 1.0
765 213 1.0
188 214 1.0
328 214 1.0
766 214 1.0
199 215 -1.0
201 215 -1.0
197 216 1.0
198 216 1.0
200 216 1.0
215 216 2.54515263975353
217 216 -2.54515263975353
219 216 1.26558121681553
221 216 -1.26558121681553
570 216 -1.0
637 216 -1.0
638 216 1.0
671 216 1.0
673 216 -1.0
693 216 -1.0
705 216 1.0
707 216 1.0
1017 216 1.0
1018 216 -1.0
197 217 1.0
200 217 1.0
211 217 -1.0
215 217 -1.0
855 217 1.0
201 218 -1.0
213 218 -1.0
219 218 -1.0
901 218 1.0
204 219 -1.0
206 219 -1.0
202 220 1.0
203 220 1.0
205 220 1.0
216 220 2.54515263975353
218 220 -2.54515263975353
220 220 1.26558121681553
222 220 -1.26558121681553
570 220 1.0
638 220 -1.0
672 220 1.0
674 220 -1.0
694 220 -1.0
706 220 1.0
708 220 1.0
1019 220 1.0
1020 220 -1.0
202 221 1.0
205 221 1.0
212 221 -1.0
216 221 -1.0
856 221 1.0
206 222 -1.0
214 222 -1.0
220 222 -1.0
902 222 1.0
207 223 1.0
211 223 -1.0
217 223 -1.0
859 223 1.0
208 224 1.0
212 224 -1.0
218 224 -1.0
860 224 1.0
209 225 1.0
213 225 -1.0
221 225 -1.0
903 225 1.0
210 226 1.0
214 226 -1.0
222 226 -1.0
904 226 1.0
223 227 -0.9
229 227 -1.0
233 227 -1.0
873 227 1.0
223 228 1.0
231 228 -1.0
237 228 -1.0
905 228 1.0
224 229 -0.9
230 229 -1.0
234 229 -1.0
874 229 1.0
224 230 1.0
232 230 -1.0
238 230 -1.0
906 230 1.0
225 231 1.0
229 231 -1.0
235 231 -1.0
875 231 1.0
226 232 1.0
230 232 -1.0
236 232 -1.0
876 232 1.0
227 233 1.0
231 233 -1.0
239 233 -1.0
907 233 1.0
228 234 1.0
232 234 -1.0
240 234 -1.0
908 234 1.0
233 235 15.0
235 235 -15.0
237 235 13.5
239 235 -13.5
571 235 -1.0
639 235 -1.0
640 235 1.0
675 235 1.0
677 235 -1.0
695 235 -1.0
1021 235 1.0
1022 235 -1.0
234 236 15.0
236 236 -15.0
238 236 13.5
240 236 -13.5
571 236 1.0
640 236 -1.0
676 236 1.0
678 236 -1.0
696 236 -1.0
1023 236 1.0
1024 236 -1.0
241 237 -0.6
247 237 -1.0
251 237 -1.0
877 237 1.0
241 238 1.0
249 238 -1.0
255 238 -1.0
909 238 1.0
242 239 -0.6
248 239 -1.0
252 239 -1.0
878 239 1.0
242 240 1.0
250 240 -1.0
256 240 -1.0
910 240 1.0
243 241 1.0
247 241 -1.0
253 241 -1.0
879 241 1.0
244 242 1.0
248 242 -1.0
254 242 -1.0
880 242 1.0
245 243 1.0
249 243 -1.0
257 243 -1.0
911 243 1.0
246 244 1.0
250 244 -1.0
258 244 -1.0
912 244 1.0
251 245 15.0
253 245 -15.0
255 245 9.0
257 245 -9.0
572 245 -1.0
641 245 -1.0
642 245 1.0
675 245 1.0
679 245 -1.0
697 245 -1.0
709 245 1.0
711 245 1.0
1025 245 1.0
1026 245 -1.0
252 246 15.0
254 246 -15.0
256 246 9.0
258 246 -9.0
572 246 1.0
642 246 -1.0
676 246 1.0
680 246 -1.0
698 246 -1.0
710 246 1.0
712 246 1.0
1027 246 1.0
1028 246 -1.0
261 247 -1.0
263 247 -1.1
259 248 1.0
260 248 1.0
262 248 1.0
277 248 15.0
279 248 -15.0
281 248 3.04984759446376
283 248 -3.04984759446376
573 248 -1.0
643 248 -1.0
644 248 1.0
675 248 1.0
681 248 -1.0
699 248 -1.0
713 248 1.0
715 248 1.0
717 248 1.0
1029 248 1.0
1030 248 -1.0
259 249 1.0
262 249 1.0
273 249 -1.0
277 249 -1.0
881 249 1.0
263 250 -1.0
275 250 -1.0
281 250 -1.0
913 250 1.0
266 251 -1.0
268 251 -1.1
264 252 1.0
265 252 1.0
267 252 1.0
278 252 15.0
280 252 -15.0
282 252 3.04984759446376
284 252 -3.04984759446376
573 252 1.0
644 252 -1.0
676 252 1.0
682 252 -1.0
700 252 -1.0
714 252 1.0
716 252 1.0
718 252 1.0
1031 252 1.0
1032 252 -1.0
264 253 1.0
267 253 1.0
274 253 -1.0
278 253 -1.0
882 253 1.0
268 254 -1.0
276 254 -1.0
282 254 -1.0
914 254 1.0
269 255 1.0
273 255 -1.0
279 255 -1.0
883 255 1.0
270 256 1.0
274 256 -1.0
280 256 -1.0
884 256 1.0
271 257 1.0
275 257 -1.0
283 257 -1.0
915 257 1.0
272 258 1.0
276 258 -1.0
284 258 -1.0
916 258 1.0
285 259 -0.9
295 259 -1.0
301 259 -1.0
887 259 1.0
285 260 1.0
287 260 1.0
299 260 -1.0
309 260 -1.0
953 260 1.0
286 261 -0.9
296 261 -1.0
302 261 -1.0
888 261 1.0
286 262 1.0
288 262 1.0
300 262 -1.0
310 262 -1.0
954 262 1.0
287 263 -1.0
297 263 -1.0
305 263 -1.0
925 263 1.0
288 264 -1.0
298 264 -1.0
306 264 -1.0
926 264 1.0
289 265 1.0
295 265 -1.0
303 265 -1.0
891 265 1.0
290 266 1.0
296 266 -1.0
304 266 -1.0
892 266 1.0
291 267 1.0
297 267 -1.0
307 267 -1.0
927 267 1.0
292 268 1.0
298 268 -1.0
308 268 -1.0
928 268 1.0
293 269 1.0
299 269 -1.0
311 269 -1.0
955 269 1.0
294 270 1.0
300 270 -1.0
312 270 -1.0
956 270 1.0
301 271 1.83548069293539
303 271 -1.83548069293539
305 271 20.0
307 271 -20.0
309 271 20.0
311 271 -20.0
574 271 -1.0
645 271 -1.0
646 271 1.0
667 271 1.0
701 271 -1.0
1033 271 1.0
1034 271 -1.0
302 272 1.83548069293539
304 272 -1.83548069293539
306 272 20.0
308 272 -20.0
310 272 20.0
312 272 -20.0
574 272 1.0
646 272 -1.0
668 272 1.0
702 272 -1.0
1035 272 1.0
1036 272 -1.0
315 273 -1.0
317 273 -1.0
313 274 1.0
314 274 1.0
316 274 1.0
331 274 1.32154609891348
333 274 -1.32154609891348
335 274 0.842233385663186
337 274 -0.842233385663186
575 274 -1.0
647 274 -1.0
648 274 1.0
669 274 1.0
703 274 -1.0
1037 274 1.0
1038 274 -1.0
313 275 1.0
316 275 1.0
327 275 -1.0
331 275 -1.0
895 275 1.0
317 276 -1.0
329 276 -1.0
335 276 -1.0
957 276 1.0
320 277 -1.0
322 277 -1.0
318 278 1.0
319 278 1.0
321 278 1.0
332 278 1.32154609891348
334 278 -1.32154609891348
336 278 0.842233385663186
338 278 -0.842233385663186
575 278 1.0
648 278 -1.0
670 278 1.0
704 278 -1.0
1039 278 1.0
1040 278 -1.0
318 279 1.0
321 279 1.0
328 279 -1.0
332 279 -1.0
896 279 1.0
322 280 -1.0
330 280 -1.0
336 280 -1.0
958 280 1.0
323 281 1.0
327 281 -1.0
333 281 -1.0
899 281 1.0
324 282 1.0
328 282 -1.0
334 282 -1.0
900 282 1.0
325 283 1.0
329 283 -1.0
337 283 -1.0
959 283 1.0
326 284 1.0
330 284 -1.0
338 284 -1.0
960 284 1.0
341 285 -1.0
343 285 -0.7
339 286 1.0
340 286 1.0
342 286 1.0
357 286 1.26558121681553
359 286 -1.26558121681553
361 286 0.572481933717686
363 286 -0.572481933717686
576 286 -1.0
649 286 -1.0
650 286 1.0
673 286 1.0
705 286 -1.0
1041 286 1.0
1042 286 -1.0
339 287 1.0
342 287 1.0
353 287 -1.0
357 287 -1.0
917 287 1.0
343 288 -1.0
355 288 -1.0
361 288 -1.0
961 288 1.0
346 289 -1.0
348 289 -0.7
344 290 1.0
345 290 1.0
347 290 1.0
358 290 1.26558121681553
360 290 -1.26558121681553
362 290 0.572481933717686
364 290 -0.572481933717686
576 290 1.0
650 290 -1.0
674 290 1.0
706 290 -1.0
1043 290 1.0
1044 290 -1.0
344 291 1.0
347 291 1.0
354 291 -1.0
358 291 -1.0
918 291 1.0
348 292 -1.0
356 292 -1.0
362 292 -1.0
962 292 1.0
349 293 1.0
353 293 -1.0
359 293 -1.0
919 293 1.0
350 294 1.0
354 294 -1.0
360 294 -1.0
920 294 1.0
351 295 1.0
355 295 -1.0
363 295 -1.0
963 295 1.0
352 296 1.0
356 296 -1.0
364 296 -1.0
964 296 1.0
367 297 -1.0
369 297 -0.65
365 298 1.0
366 298 1.0
368 298 1.0
375 298 1.0
376 298 1.0
378 298 1.0
397 298 1.26558121681553
399 298 -1.26558121681553
401 298 33.5
403 298 -33.5
405 298 2.30162356062425
407 298 -2.30162356062425
577 298 -1.0
651 298 -1.0
652 298 1.0
673 298 1.0
677 298 1.0
707 298 -1.0
1045 298 1.0
1046 298 -1.0
365 299 1.0
368 299 1.0
391 299 -1.0
397 299 -1.0
921 299 1.0
369 300 -1.0
379 300 -1.0
395 300 -1.0
405 300 -1.0
965 300 1.0
372 301 -1.0
374 301 -0.65
370 302 1.0
371 302 1.0
373 302 1.0
380 302 1.0
381 302 1.0
383 302 1.0
398 302 1.26558121681553
400 302 -1.26558121681553
402 302 33.5
404 302 -33.5
406 302 2.30162356062425
408 302 -2.30162356062425
577 302 1.0
652 302 -1.0
674 302 1.0
678 302 1.0
708 302 -1.0
1047 302 1.0
1048 302 -1.0
370 303 1.0
373 303 1.0
392 303 -1.0
398 303 -1.0
922 303 1.0
374 304 -1.0
384 304 -1.0
396 304 -1.0
406 304 -1.0
966 304 1.0
377 305 -1.0
379 305 -0.65
375 306 1.0
378 306 1.0
393 306 -1.0
401 306 -1.0
929 306 1.0
382 307 -1.0
384 307 -0.65
380 308 1.0
383 308 1.0
394 308 -1.0
402 308 -1.0
930 308 1.0
385 309 1.0
391 309 -1.0
399 309 -1.0
923 309 1.0
386 310 1.0
392 310 -1.0
400 310 -1.0
924 310 1.0
387 311 1.0
393 311 -1.0
403 311 -1.0
931 311 1.0
388 312 1.0
394 312 -1.0
404 312 -1.0
932 312 1.0
389 313 1.0
395 313 -1.0
407 313 -1.0
967 313 1.0
390 314 1.0
396 314 -1.0
408 314 -1.0
968 314 1.0
409 315 -1.0
415 315 -1.0
419 315 -1.0
933 315 1.0
409 316 1.0
417 316 -1.0
423 316 -1.0
969 316 1.0
410 317 -1.0
416 317 -1.0
420 317 -1.0
934 317 1.0
410 318 1.0
418 318 -1.0
424 318 -1.0
970 318 1.0
411 319 1.0
415 319 -1.0
421 319 -1.0
935 319 1.0
412 320 1.0
416 320 -1.0
422 320 -1.0
936 320 1.0
413 321 1.0
417 321 -1.0
425 321 -1.0
971 321 1.0
414 322 1.0
418 322 -1.0
426 322 -1.0
972 322 1.0
419 323 9.0
421 323 -9.0
423 323 9.0
425 323 -9.0
578 323 -1.0
653 323 -1.0
654 323 1.0
679 323 1.0
709 323 -1.0
1049 323 1.0
1050 323 -1.0
420 324 9.0
422 324 -9.0
424 324 9.0
426 324 -9.0
578 324 1.0
654 324 -1.0
680 324 1.0
710 324 -1.0
1051 324 1.0
1052 324 -1.0
427 325 -1.0
433 325 -1.0
437 325 -1.0
937 325 1.0
427 326 1.0
435 326 -1.0
441 326 -1.0
973 326 1.0
428 327 -1.0
434 327 -1.0
438 327 -1.0
938 327 1.0
428 328 1.0
436 328 -1.0
442 328 -1.0
974 328 1.0
429 329 1.0
433 329 -1.0
439 329 -1.0
939 329 1.0
430 330 1.0
434 330 -1.0
440 330 -1.0
940 330 1.0
431 331 1.0
435 331 -1.0
443 331 -1.0
975 331 1.0
432 332 1.0
436 332 -1.0
444 332 -1.0
976 332 1.0
437 333 9.0
439 333 -9.0
441 333 9.0
443 333 -9.0
579 333 -1.0
655 333 -1.0
656 333 1.0
679 333 1.0
711 333 -1.0
1053 333 1.0
1054 333 -1.0
438 334 9.0
440 334 -9.0
442 334 9.0
444 334 -9.0
579 334 1.0
656 334 -1.0
680 334 1.0
712 334 -1.0
1055 334 1.0
1056 334 -1.0
447 335 -1.0
449 335 -0.75
445 336 1.0
446 336 1.0
448 336 1.0
463 336 3.04984759446376
465 336 -3.04984759446376
467 336 1.04900943706034
469 336 -1.04900943706034
580 336 -1.0
657 336 -1.0
658 336 1.0
681 336 1.0
713 336 -1.0
1057 336 1.0
1058 336 -1.0
445 337 1.0
448 337 1.0
459 337 -1.0
463 337 -1.0
941 337 1.0
449 338 -1.0
461 338 -1.0
467 338 -1.0
977 338 1.0
452 339 -1.0
454 339 -0.75
450 340 1.0
451 340 1.0
453 340 1.0
464 340 3.04984759446376
466 340 -3.04984759446376
468 340 1.04900943706034
470 340 -1.04900943706034
580 340 1.0
658 340 -1.0
682 340 1.0
714 340 -1.0
1059 340 1.0
1060 340 -1.0
450 341 1.0
453 341 1.0
460 341 -1.0
464 341 -1.0
942 341 1.0
454 342 -1.0
462 342 -1.0
468 342 -1.0
978 342 1.0
455 343 1.0
459 343 -1.0
465 343 -1.0
943 343 1.0
456 344 1.0
460 344 -1.0
466 344 -1.0
944 344 1.0
457 345 1.0
461 345 -1.0
469 345 -1.0
979 345 1.0
458 346 1.0
462 346 -1.0
470 346 -1.0
980 346 1.0
473 347 -1.0
475 347 -0.8
471 348 1.0
472 348 1.0
474 348 1.0
489 348 3.04984759446376
491 348 -3.04984759446376
493 348 1.11894339953103
495 348 -1.11894339953103
581 348 -1.0
659 348 -1.0
660 348 1.0
681 348 1.0
715 348 -1.0
1061 348 1.0
1062 348 -1.0
471 349 1.0
474 349 1.0
485 349 -1.0
489 349 -1.0
945 349 1.0
475 350 -1.0
487 350 -1.0
493 350 -1.0
981 350 1.0
478 351 -1.0
480 351 -0.8
476 352 1.0
477 352 1.0
479 352 1.0
490 352 3.04984759446376
492 352 -3.04984759446376
494 352 1.11894339953103
496 352 -1.11894339953103
581 352 1.0
660 352 -1.0
682 352 1.0
716 352 -1.0
1063 352 1.0
1064 352 -1.0
476 353 1.0
479 353 1.0
486 353 -1.0
490 353 -1.0
946 353 1.0
480 354 -1.0
488 354 -1.0
494 354 -1.0
982 354 1.0
481 355 1.0
485 355 -1.0
491 355 -1.0
947 355 1.0
482 356 1.0
486 356 -1.0
492 356 -1.0
948 356 1.0
483 357 1.0
487 357 -1.0
495 357 -1.0
983 357 1.0
484 358 1.0
488 358 -1.0
496 358 -1.0
984 358 1.0
499 359 -1.0
501 359 -0.85
497 360 1.0
498 360 1.0
500 360 1.0
515 360 3.04984759446376
517 360 -3.04984759446376
519 360 1.18887736200171
521 360 -1.18887736200171
582 360 -1.0
661 360 -1.0
662 360 1.0
681 360 1.0
717 360 -1.0
1065 360 1.0
1066 360 -1.0
497 361 1.0
500 361 1.0
511 361 -1.0
515 361 -1.0
949 361 1.0
501 362 -1.0
513 362 -1.0
519 362 -1.0
985 362 1.0
504 363 -1.0
506 363 -0.85
502 364 1.0
503 364 1.0
505 364 1.0
516 364 3.04984759446376
518 364 -3.04984759446376
520 364 1.18887736200171
522 364 -1.18887736200171
582 364 1.0
662 364 -1.0
682 364 1.0
718 364 -1.0
1067 364 1.0
1068 364 -1.0
502 365 1.0
505 365 1.0
512 365 -1.0
516 365 -1.0
950 365 1.0
506 366 -1.0
514 366 -1.0
520 366 -1.0
986 366 1.0
507 367 1.0
511 367 -1.0
517 367 -1.0
951 367 1.0
508 368 1.0
512 368 -1.0
518 368 -1.0
952 368 1.0
509 369 1.0
513 369 -1.0
521 369 -1.0
987 369 1.0
510 370 1.0
514 370 -1.0
522 370 -1.0
988 370 1.0
523 371 1.0
524 372 1.0
525 373 1.0
526 374 1.0
527 375 1.0
528 376 1.0
529 377 1.0
530 378 1.0
531 379 1.0
532 380 1.0
533 381 1.0
534 382 1.0
535 383 1.0
536 384 1.0
537 385 1.0
538 386 1.0
539 387 1.0
540 388 1.0
541 389 1.0
542 390 1.0
543 391 1.0
544 392 1.0
545 393 1.0
546 394 1.0
547 395 1.0
548 396 1.0
549 397 1.0
550 398 1.0
551 399 1.0
552 400 1.0
553 401 1.0
554 402 1.0
555 403 1.0
556 404 1.0
557 405 1.0
558 406 1.0
559 407 1.0
560 408 1.0
561 409 1.0
562 410 1.0

BCOORD
216
41 40.0
42 40.0
45 3.71357206670431
46 3.71357206670431
67 40.0
68 40.0
71 4.45628648004517
72 4.45628648004517
85 4.45628648004517
86 4.45628648004517
89 3.34221486003388
90 3.34221486003388
111 4.45628648004517
112 4.45628648004517
115 2.54515263975353
116 2.54515263975353
135 4.45628648004517
136 4.45628648004517
139 30.0
140 30.0
143 15.0
144 15.0
165 3.34221486003388
166 3.34221486003388
169 1.83548069293539
170 1.83548069293539
191 3.34221486003388
192 3.34221486003388
195 1.32154609891348
196 1.32154609891348
217 2.54515263975353
218 2.54515263975353
221 1.26558121681553
222 1.26558121681553
235 15.0
236 15.0
239 13.5
240 13.5
253 15.0
254 15.0
257 9.0
258 9.0
279 15.0
280 15.0
283 3.04984759446376
284 3.04984759446376
303 1.83548069293539
304 1.83548069293539
307 20.0
308 20.0
311 20.0
312 20.0
333 1.32154609891348
334 1.32154609891348
337 0.842233385663186
338 0.842233385663186
359 1.26558121681553
360 1.26558121681553
363 0.572481933717686
364 0.572481933717686
399 1.26558121681553
400 1.26558121681553
403 33.5
404 33.5
407 2.30162356062425
408 2.30162356062425
421 9.0
422 9.0
425 9.0
426 9.0
439 9.0
440 9.0
443 9.0
444 9.0
465 3.04984759446376
466 3.04984759446376
469 1.04900943706034
470 1.04900943706034
491 3.04984759446376
492 3.04984759446376
495 1.11894339953103
496 1.11894339953103
517 3.04984759446376
518 3.04984759446376
521 1.18887736200171
522 1.18887736200171
583 1.0
584 1.0
585 1.0
586 1.0
587 1.0
588 1.0
589 1.0
590 1.0
591 1.0
592 1.0
593 1.0
594 1.0
595 1.0
596 1.0
597 1.0
598 1.0
599 1.0
600 1.0
601 1.0
602 1.0
603 1.0
604 1.0
605 1.0
606 1.0
607 1.0
608 1.0
609 1.0
610 1.0
611 1.0
612 1.0
613 1.0
614 1.0
615 1.0
616 1.0
617 1.0
618 1.0
619 1.0
620 1.0
621 1.0
622 1.0
663 -1.0
664 -1.0
720 40.0
722 40.0
744 30.0
746 30.0
780 20.0
782 20.0
784 20.0
786 20.0
990 1.0
992 1.0
994 1.0
996 1.0
998 1.0
1000 1.0
1002 1.0
1004 1.0
1006 1.0
1008 1.0
1010 1.0
1012 1.0
1014 1.0
1016 1.0
1018 1.0
1020 1.0
1022 1.0
1024 1.0
1026 1.0
1028 1.0
1030 1.0
1032 1.0
1034 1.0
1036 1.0
1038 1.0
1040 1.0
1042 1.0
1044 1.0
1046 1.0
1048 1.0
1050 1.0
1052 1.0
1054 1.0
1056 1.0
1058 1.0
1060 1.0
1062 1.0
1064 1.0
1066 1.0
1068 1.0
1070 1.0
1072 1.0
1074 1.0
1076 1.0
1078 1.0
1080 1.0
1082 1.0
1084 1.0
1086 1.0
1088 1.0
1090 1.0
1092 1.0
1094 1.0
1096 1.0
1098 1.0
1100 1.0
1102 1.0
1104 1.0
1106 1.0
1108 1.0
1110 1.0
1112 1.0
1114 1.0
1116 1.0
1118 1.0
1120 1.0
1122 1.0
1124 1.0
1126 1.0
1128 1.0
1130 1.0
1132 1.0
1134 1.0
1136 1.0
1138 1.0
1140 1.0
1142 1.0
1144 1.0
1146 1.0
1148 1.0
